set I := 1,2,3,4,5,6;
set J := Basic, Standard, Premium;
set K := Protein, Fat, Carbohydrate;

param content:
    Protein  Fat  Carbohydrate :=
1  20 5 30
2 15 10 25
3 25 8 20
4 18 4 35
5 22 6 28
6 30 5 10;

param cost:=
1 2.5
2 1.8
3 3.1
4 2.2
5 2.9
6 3.4;

param min_req:
    Protein  Fat  Carbohydrate :=
Basic  11   3   26
Standard  12  4   28
Premium  10  6 30;

